
  32    4
  10   10   10   10

   0   0   0   0   0   3 2 3 5 
   8   0   1   1   1   3 7 6 4 
   4   1   0   4   3   5 10 9 8 7 6 
   2   0   6   5   3   5 12 11 10 9 8 
   1   4   6   0   5   4 12 11 9 8 
   8   4   3   6   0   2 12 11 
   5   3   2   0   5   4 20 18 17 12 
   4   4   5   3   0   7 20 19 18 17 16 15 13 
   1   0   7   6   5   7 19 18 17 16 15 14 13 
   2   4   2   6   0   7 20 19 18 17 16 15 13 
   3   5   2   0   4   6 20 18 17 16 15 14 
   9   0   3   1   4   5 19 16 15 14 13 
   7   0   5   7   6   4 31 23 22 21 
   9   3   4   0   3   4 31 23 22 21 
   9   0   3   4   2   4 31 30 23 22 
   5   0   5   4   3   3 31 23 21 
   7   7   0   3   5   3 31 22 21 
   5   3   0   4   4   3 31 22 21 
   6   4   4   3   0   3 31 23 21 
   7   0   4   3   2   3 31 23 21 
   6   4   0   5   5   5 30 29 28 27 24 
   3   5   2   4   0   5 29 28 26 25 24 
   9   0   8   3   5   4 27 26 25 24 
   8   3   0   4   7   1 32
   2   0   5   5   5   1 32
   7   2   5   4   0   1 32
   4   7   0   2   3   1 32
   1   3   2   4   0   1 32
   1   5   0   6   2   1 32
   8   5   0   2   4   1 32
   4   0   4   5   6   1 32
   0   0   0   0   0   0 
